(set-info :smt-lib-version 2.6)
(set-logic UFNIA)
(set-info :source |
Generated by: Geoff Sutcliffe
Generated on: 2026-03-11
Generator: TPTPWorld
Application: Benchmarking automated theorem provers
Time limit: 120.0

These benchmarks are translations from the TPTP Library (Thousands of
Problems for Theorem Provers), see http://www.cs.miami.edu/~tptp/

The TPTP is maintained by Geoff Sutcliffe, and he contributed this
selection of benchmarks to SMT-LIB.  They were exported from the
v9.2.1 realease of TPTP.
|)
(set-info :category "industrial")
(set-info :status unknown)
; SZS status Success
(declare-sort $$unsorted 0)
(declare-sort tptp.uni 0)
(declare-sort tptp.ty 0)
(declare-fun tptp.sort (tptp.ty tptp.uni) Bool)
(declare-fun tptp.witness (tptp.ty) tptp.uni)
(assert (forall ((A tptp.ty)) (tptp.sort A (tptp.witness A))))
(declare-fun tptp.int () tptp.ty)
(declare-fun tptp.real () tptp.ty)
(declare-sort tptp.bool 0)
(declare-fun tptp.bool1 () tptp.ty)
(declare-fun tptp.true () tptp.bool)
(declare-fun tptp.false () tptp.bool)
(declare-fun tptp.match_bool (tptp.ty tptp.bool tptp.uni tptp.uni) tptp.uni)
(assert (forall ((A tptp.ty) (X tptp.bool) (X1 tptp.uni) (X2 tptp.uni)) (tptp.sort A (tptp.match_bool A X X1 X2))))
(assert (forall ((A tptp.ty) (Z tptp.uni) (Z1 tptp.uni)) (=> (tptp.sort A Z) (= (tptp.match_bool A tptp.true Z Z1) Z))))
(assert (forall ((A tptp.ty) (Z tptp.uni) (Z1 tptp.uni)) (=> (tptp.sort A Z1) (= (tptp.match_bool A tptp.false Z Z1) Z1))))
(assert (not (= tptp.true tptp.false)))
(assert (forall ((U tptp.bool)) (or (= U tptp.true) (= U tptp.false))))
(declare-sort tptp.tuple0 0)
(declare-fun tptp.tuple01 () tptp.ty)
(declare-fun tptp.tuple02 () tptp.tuple0)
(assert (forall ((U tptp.tuple0)) (= U tptp.tuple02)))
(declare-fun tptp.qtmark () tptp.ty)
(assert (forall ((X Int) (Y Int) (Z Int)) (=> (<= X Y) (=> (<= 0 Z) (<= (* X Z) (* Y Z))))))
(declare-fun tptp.list (tptp.ty) tptp.ty)
(declare-fun tptp.nil (tptp.ty) tptp.uni)
(assert (forall ((A tptp.ty)) (tptp.sort (tptp.list A) (tptp.nil A))))
(declare-fun tptp.cons (tptp.ty tptp.uni tptp.uni) tptp.uni)
(assert (forall ((A tptp.ty) (X tptp.uni) (X1 tptp.uni)) (tptp.sort (tptp.list A) (tptp.cons A X X1))))
(declare-fun tptp.match_list (tptp.ty tptp.ty tptp.uni tptp.uni tptp.uni) tptp.uni)
(assert (forall ((A tptp.ty) (A1 tptp.ty) (X tptp.uni) (X1 tptp.uni) (X2 tptp.uni)) (tptp.sort A1 (tptp.match_list A1 A X X1 X2))))
(assert (forall ((A tptp.ty) (A1 tptp.ty) (Z tptp.uni) (Z1 tptp.uni)) (=> (tptp.sort A1 Z) (= (tptp.match_list A1 A (tptp.nil A) Z Z1) Z))))
(assert (forall ((A tptp.ty) (A1 tptp.ty) (Z tptp.uni) (Z1 tptp.uni) (U tptp.uni) (U1 tptp.uni)) (=> (tptp.sort A1 Z1) (= (tptp.match_list A1 A (tptp.cons A U U1) Z Z1) Z1))))
(assert (forall ((A tptp.ty) (V tptp.uni) (V1 tptp.uni)) (not (= (tptp.nil A) (tptp.cons A V V1)))))
(declare-fun tptp.cons_proj_1 (tptp.ty tptp.uni) tptp.uni)
(assert (forall ((A tptp.ty) (X tptp.uni)) (tptp.sort A (tptp.cons_proj_1 A X))))
(assert (forall ((A tptp.ty) (U tptp.uni) (U1 tptp.uni)) (=> (tptp.sort A U) (= (tptp.cons_proj_1 A (tptp.cons A U U1)) U))))
(declare-fun tptp.cons_proj_2 (tptp.ty tptp.uni) tptp.uni)
(assert (forall ((A tptp.ty) (X tptp.uni)) (tptp.sort (tptp.list A) (tptp.cons_proj_2 A X))))
(assert (forall ((A tptp.ty) (U tptp.uni) (U1 tptp.uni)) (= (tptp.cons_proj_2 A (tptp.cons A U U1)) U1)))
(assert (forall ((A tptp.ty) (U tptp.uni)) (or (= U (tptp.nil A)) (= U (tptp.cons A (tptp.cons_proj_1 A U) (tptp.cons_proj_2 A U))))))
(declare-fun tptp.head (tptp.ty tptp.uni) tptp.uni)
(assert (forall ((A tptp.ty) (X tptp.uni)) (tptp.sort A (tptp.head A X))))
(assert (forall ((A tptp.ty) (X tptp.uni) (L tptp.uni)) (=> (tptp.sort A X) (= (tptp.head A (tptp.cons A X L)) X))))
(declare-fun tptp.tail (tptp.ty tptp.uni) tptp.uni)
(assert (forall ((A tptp.ty) (X tptp.uni)) (tptp.sort (tptp.list A) (tptp.tail A X))))
(assert (forall ((A tptp.ty) (X tptp.uni) (L tptp.uni)) (= (tptp.tail A (tptp.cons A X L)) L)))
(declare-fun tptp.mem (tptp.ty tptp.uni tptp.uni) Bool)
(assert (forall ((A tptp.ty) (X tptp.uni)) (=> (tptp.sort A X) (and (not (tptp.mem A X (tptp.nil A))) (forall ((X1 tptp.uni) (X2 tptp.uni)) (=> (tptp.sort A X1) (= (tptp.mem A X (tptp.cons A X1 X2)) (or (= X X1) (tptp.mem A X X2)))))))))
(declare-fun tptp.disjoint (tptp.ty tptp.uni tptp.uni) Bool)
(assert (forall ((A tptp.ty) (L1 tptp.uni) (L2 tptp.uni)) (let ((_let_1 (tptp.disjoint A L1 L2))) (and (=> _let_1 (forall ((X tptp.uni)) (not (and (tptp.mem A X L1) (tptp.mem A X L2))))) (=> (forall ((X tptp.uni)) (=> (tptp.sort A X) (not (and (tptp.mem A X L1) (tptp.mem A X L2))))) _let_1)))))
(declare-fun tptp.no_repet (tptp.ty tptp.uni) Bool)
(assert (forall ((A tptp.ty)) (and (tptp.no_repet A (tptp.nil A)) (forall ((X tptp.uni) (X1 tptp.uni)) (= (tptp.no_repet A (tptp.cons A X X1)) (and (not (tptp.mem A X X1)) (tptp.no_repet A X1)))))))
(declare-fun tptp.infix_plpl (tptp.ty tptp.uni tptp.uni) tptp.uni)
(assert (forall ((A tptp.ty) (X tptp.uni) (X1 tptp.uni)) (tptp.sort (tptp.list A) (tptp.infix_plpl A X X1))))
(assert (forall ((A tptp.ty) (L2 tptp.uni)) (and (= (tptp.infix_plpl A (tptp.nil A) L2) L2) (forall ((X tptp.uni) (X1 tptp.uni)) (= (tptp.infix_plpl A (tptp.cons A X X1) L2) (tptp.cons A X (tptp.infix_plpl A X1 L2)))))))
(assert (forall ((A tptp.ty) (L1 tptp.uni) (L2 tptp.uni) (L3 tptp.uni)) (= (tptp.infix_plpl A L1 (tptp.infix_plpl A L2 L3)) (tptp.infix_plpl A (tptp.infix_plpl A L1 L2) L3))))
(assert (forall ((A tptp.ty) (L tptp.uni)) (= (tptp.infix_plpl A L (tptp.nil A)) L)))
(declare-fun tptp.length (tptp.ty tptp.uni) Int)
(assert (forall ((A tptp.ty)) (and (= (tptp.length A (tptp.nil A)) 0) (forall ((X tptp.uni) (X1 tptp.uni)) (= (tptp.length A (tptp.cons A X X1)) (+ 1 (tptp.length A X1)))))))
(assert (forall ((A tptp.ty) (L tptp.uni)) (<= 0 (tptp.length A L))))
(assert (forall ((A tptp.ty) (L tptp.uni)) (= (= (tptp.length A L) 0) (= L (tptp.nil A)))))
(assert (forall ((A tptp.ty) (L1 tptp.uni) (L2 tptp.uni)) (= (tptp.length A (tptp.infix_plpl A L1 L2)) (+ (tptp.length A L1) (tptp.length A L2)))))
(assert (forall ((A tptp.ty) (X tptp.uni) (L1 tptp.uni) (L2 tptp.uni)) (= (tptp.mem A X (tptp.infix_plpl A L1 L2)) (or (tptp.mem A X L1) (tptp.mem A X L2)))))
(assert (forall ((A tptp.ty) (X tptp.uni) (L tptp.uni)) (=> (tptp.mem A X L) (exists ((L1 tptp.uni) (L2 tptp.uni)) (let ((_let_1 (tptp.list A))) (and (tptp.sort _let_1 L1) (tptp.sort _let_1 L2) (= L (tptp.infix_plpl A L1 (tptp.cons A X L2)))))))))
(declare-fun tptp.reverse (tptp.ty tptp.uni) tptp.uni)
(assert (forall ((A tptp.ty) (X tptp.uni)) (tptp.sort (tptp.list A) (tptp.reverse A X))))
(assert (forall ((A tptp.ty)) (let ((_let_1 (tptp.nil A))) (and (= (tptp.reverse A _let_1) _let_1) (forall ((X tptp.uni) (X1 tptp.uni)) (= (tptp.reverse A (tptp.cons A X X1)) (tptp.infix_plpl A (tptp.reverse A X1) (tptp.cons A X (tptp.nil A)))))))))
(assert (forall ((A tptp.ty) (L1 tptp.uni) (L2 tptp.uni) (X tptp.uni)) (= (tptp.infix_plpl A (tptp.reverse A (tptp.cons A X L1)) L2) (tptp.infix_plpl A (tptp.reverse A L1) (tptp.cons A X L2)))))
(assert (forall ((A tptp.ty) (L tptp.uni) (X tptp.uni)) (= (tptp.reverse A (tptp.cons A X L)) (tptp.infix_plpl A (tptp.reverse A L) (tptp.cons A X (tptp.nil A))))))
(assert (forall ((A tptp.ty) (L tptp.uni)) (= (tptp.reverse A (tptp.reverse A L)) L)))
(assert (forall ((A tptp.ty) (L tptp.uni) (X tptp.uni)) (= (tptp.mem A X L) (tptp.mem A X (tptp.reverse A L)))))
(assert (forall ((A tptp.ty) (L tptp.uni)) (= (tptp.length A (tptp.reverse A L)) (tptp.length A L))))
(declare-fun tptp.map (tptp.ty tptp.ty) tptp.ty)
(declare-fun tptp.get (tptp.ty tptp.ty tptp.uni tptp.uni) tptp.uni)
(assert (forall ((A tptp.ty) (B tptp.ty) (X tptp.uni) (X1 tptp.uni)) (tptp.sort B (tptp.get B A X X1))))
(declare-fun tptp.set (tptp.ty tptp.ty tptp.uni tptp.uni tptp.uni) tptp.uni)
(assert (forall ((A tptp.ty) (B tptp.ty) (X tptp.uni) (X1 tptp.uni) (X2 tptp.uni)) (tptp.sort (tptp.map A B) (tptp.set B A X X1 X2))))
(assert (forall ((A tptp.ty) (B tptp.ty) (M tptp.uni) (A1 tptp.uni) (A2 tptp.uni) (B1 tptp.uni)) (=> (tptp.sort B B1) (=> (= A1 A2) (= (tptp.get B A (tptp.set B A M A1 B1) A2) B1)))))
(assert (forall ((A tptp.ty) (B tptp.ty) (M tptp.uni) (A1 tptp.uni) (A2 tptp.uni)) (=> (tptp.sort A A1) (=> (tptp.sort A A2) (forall ((B1 tptp.uni)) (=> (not (= A1 A2)) (= (tptp.get B A (tptp.set B A M A1 B1) A2) (tptp.get B A M A2))))))))
(declare-fun tptp.const (tptp.ty tptp.ty tptp.uni) tptp.uni)
(assert (forall ((A tptp.ty) (B tptp.ty) (X tptp.uni)) (tptp.sort (tptp.map A B) (tptp.const B A X))))
(assert (forall ((A tptp.ty) (B tptp.ty) (B1 tptp.uni) (A1 tptp.uni)) (=> (tptp.sort B B1) (= (tptp.get B A (tptp.const B A B1) A1) B1))))
(declare-sort tptp.loc 0)
(declare-fun tptp.loc1 () tptp.ty)
(declare-fun tptp.null () tptp.loc)
(declare-sort tptp.list_loc 0)
(declare-sort tptp.map_loc_loc 0)
(declare-fun tptp.list_seg (tptp.loc tptp.map_loc_loc tptp.list_loc tptp.loc) Bool)
(declare-fun tptp.t2tb (tptp.list_loc) tptp.uni)
(assert (forall ((X tptp.list_loc)) (tptp.sort (tptp.list tptp.loc1) (tptp.t2tb X))))
(declare-fun tptp.tb2t (tptp.uni) tptp.list_loc)
(assert (forall ((I tptp.list_loc)) (= (tptp.tb2t (tptp.t2tb I)) I)))
(assert (forall ((J tptp.uni)) (= (tptp.t2tb (tptp.tb2t J)) J)))
(assert (forall ((P tptp.loc) (Next tptp.map_loc_loc)) (tptp.list_seg P Next (tptp.tb2t (tptp.nil tptp.loc1)) P)))
(declare-fun tptp.t2tb1 (tptp.map_loc_loc) tptp.uni)
(assert (forall ((X tptp.map_loc_loc)) (tptp.sort (tptp.map tptp.loc1 tptp.loc1) (tptp.t2tb1 X))))
(declare-fun tptp.tb2t1 (tptp.uni) tptp.map_loc_loc)
(assert (forall ((I tptp.map_loc_loc)) (= (tptp.tb2t1 (tptp.t2tb1 I)) I)))
(assert (forall ((J tptp.uni)) (=> (tptp.sort (tptp.map tptp.loc1 tptp.loc1) J) (= (tptp.t2tb1 (tptp.tb2t1 J)) J))))
(declare-fun tptp.t2tb2 (tptp.loc) tptp.uni)
(assert (forall ((X tptp.loc)) (tptp.sort tptp.loc1 (tptp.t2tb2 X))))
(declare-fun tptp.tb2t2 (tptp.uni) tptp.loc)
(assert (forall ((I tptp.loc)) (= (tptp.tb2t2 (tptp.t2tb2 I)) I)))
(assert (forall ((J tptp.uni)) (=> (tptp.sort tptp.loc1 J) (= (tptp.t2tb2 (tptp.tb2t2 J)) J))))
(assert (forall ((P tptp.loc) (Q tptp.loc) (Next tptp.map_loc_loc) (L tptp.list_loc)) (let ((_let_1 (tptp.t2tb2 P))) (=> (and (not (= P tptp.null)) (tptp.list_seg (tptp.tb2t2 (tptp.get tptp.loc1 tptp.loc1 (tptp.t2tb1 Next) _let_1)) Next L Q)) (tptp.list_seg P Next (tptp.tb2t (tptp.cons tptp.loc1 _let_1 (tptp.t2tb L))) Q)))))
(assert (forall ((Z tptp.loc) (Z1 tptp.map_loc_loc) (Z2 tptp.list_loc) (Z3 tptp.loc)) (=> (tptp.list_seg Z Z1 Z2 Z3) (or (exists ((P tptp.loc) (Next tptp.map_loc_loc)) (and (= Z P) (= Z1 Next) (= Z2 (tptp.tb2t (tptp.nil tptp.loc1))) (= Z3 P))) (exists ((P tptp.loc) (Q tptp.loc) (Next tptp.map_loc_loc) (L tptp.list_loc)) (let ((_let_1 (tptp.t2tb2 P))) (and (not (= P tptp.null)) (tptp.list_seg (tptp.tb2t2 (tptp.get tptp.loc1 tptp.loc1 (tptp.t2tb1 Next) _let_1)) Next L Q) (= Z P) (= Z1 Next) (= Z2 (tptp.tb2t (tptp.cons tptp.loc1 _let_1 (tptp.t2tb L)))) (= Z3 Q))))))))
(assert (forall ((Next1 tptp.map_loc_loc) (Next2 tptp.map_loc_loc) (P tptp.loc) (Q tptp.loc) (V tptp.loc) (PM tptp.list_loc)) (let ((_let_1 (tptp.t2tb2 Q))) (=> (and (tptp.list_seg P Next1 PM tptp.null) (= Next2 (tptp.tb2t1 (tptp.set tptp.loc1 tptp.loc1 (tptp.t2tb1 Next1) _let_1 (tptp.t2tb2 V)))) (not (tptp.mem tptp.loc1 _let_1 (tptp.t2tb PM)))) (tptp.list_seg P Next2 PM tptp.null)))))
(assert (forall ((Next tptp.map_loc_loc) (L1 tptp.list_loc) (L2 tptp.list_loc) (P tptp.loc)) (=> (and (tptp.list_seg P Next L1 tptp.null) (tptp.list_seg P Next L2 tptp.null)) (= L1 L2))))
(assert (forall ((Next tptp.map_loc_loc) (L1 tptp.list_loc) (L2 tptp.list_loc) (P tptp.loc) (Q tptp.loc)) (let ((_let_1 (tptp.cons tptp.loc1 (tptp.t2tb2 Q) (tptp.t2tb L2)))) (=> (tptp.list_seg P Next (tptp.tb2t (tptp.infix_plpl tptp.loc1 (tptp.t2tb L1) _let_1)) tptp.null) (tptp.list_seg Q Next (tptp.tb2t _let_1) tptp.null)))))
(assert (forall ((Next tptp.map_loc_loc) (PM tptp.list_loc) (P tptp.loc)) (=> (tptp.list_seg P Next PM tptp.null) (tptp.no_repet tptp.loc1 (tptp.t2tb PM)))))
(declare-fun tptp.ref (tptp.ty) tptp.ty)
(declare-fun tptp.mk_ref (tptp.ty tptp.uni) tptp.uni)
(assert (forall ((A tptp.ty) (X tptp.uni)) (tptp.sort (tptp.ref A) (tptp.mk_ref A X))))
(declare-fun tptp.contents (tptp.ty tptp.uni) tptp.uni)
(assert (forall ((A tptp.ty) (X tptp.uni)) (tptp.sort A (tptp.contents A X))))
(assert (forall ((A tptp.ty) (U tptp.uni)) (=> (tptp.sort A U) (= (tptp.contents A (tptp.mk_ref A U)) U))))
(assert (forall ((A tptp.ty) (U tptp.uni)) (=> (tptp.sort (tptp.ref A) U) (= U (tptp.mk_ref A (tptp.contents A U))))))
(assert (not (forall ((L tptp.loc) (LM tptp.list_loc) (Next tptp.map_loc_loc)) (=> (tptp.list_seg L Next LM tptp.null) (forall ((RM tptp.list_loc) (R tptp.loc) (PM tptp.list_loc) (P tptp.loc) (Next1 tptp.map_loc_loc)) (let ((_let_1 (tptp.t2tb RM))) (let ((_let_2 (tptp.t2tb PM))) (=> (and (tptp.list_seg P Next1 PM tptp.null) (tptp.list_seg R Next1 RM tptp.null) (tptp.disjoint tptp.loc1 _let_2 _let_1) (= (tptp.tb2t (tptp.infix_plpl tptp.loc1 (tptp.reverse tptp.loc1 _let_2) _let_1)) (tptp.tb2t (tptp.reverse tptp.loc1 (tptp.t2tb LM))))) (=> (not (= P tptp.null)) (forall ((Next2 tptp.map_loc_loc)) (=> (= Next2 (tptp.tb2t1 (tptp.set tptp.loc1 tptp.loc1 (tptp.t2tb1 Next1) (tptp.t2tb2 P) (tptp.t2tb2 R)))) (=> (tptp.list_seg R Next2 RM tptp.null) (forall ((R1 tptp.loc)) (=> (= R1 P) (forall ((P1 tptp.loc)) (=> (= P1 (tptp.tb2t2 (tptp.get tptp.loc1 tptp.loc1 (tptp.t2tb1 Next1) (tptp.t2tb2 P)))) (forall ((RM1 tptp.list_loc)) (=> (= RM1 (tptp.tb2t (tptp.cons tptp.loc1 (tptp.head tptp.loc1 (tptp.t2tb PM)) (tptp.t2tb RM)))) (forall ((PM1 tptp.list_loc)) (=> (= PM1 (tptp.tb2t (tptp.tail tptp.loc1 (tptp.t2tb PM)))) (and (not (= PM (tptp.tb2t (tptp.nil tptp.loc1)))) (forall ((X tptp.loc) (X1 tptp.list_loc)) (=> (= PM (tptp.tb2t (tptp.cons tptp.loc1 (tptp.t2tb2 X) (tptp.t2tb X1)))) (= X1 PM1))))))))))))))))))))))))
(check-sat)
(exit)
